networks/zoo_102_510/zoo_102_510-lower.txt
Number of groups: 69
Flow 1: {1 2 0} {2 53 0} 
Flow 3: {6 57 0} 
Flow 33: {2 1 0} {1 44 0} {44 46 0} {46 49 0} {49 100 0} 
Flow 44: {3 47 0} {47 98 0} 
Flow 45: {43 42 0} {42 48 0} {48 99 0} 
Flow 48: {4 47 0} {47 44 0} {44 45 0} {45 96 0} 
Flow 57: {5 1 0} 
Flow 89: {7 1 0} 
Flow 98: {8 1 0} 
Flow 109: {9 6 0} 
Flow 111: {10 6 0} 
Flow 117: {12 32 0} {32 46 0} {46 45 0} {45 48 0} {48 42 0} {42 93 0} 
Flow 126: {13 32 0} 
Flow 142: {15 32 0} {32 83 0} 
Flow 163: {17 32 0} 
Flow 171: {18 32 0} 
Flow 175: {19 32 0} 
Flow 180: {20 32 0} 
Flow 183: {21 32 0} 
Flow 185: {22 29 0} {29 46 0} {46 44 0} {44 95 0} 
Flow 188: {25 14 0} {14 32 0} 
Flow 191: {26 45 0} {45 44 0} {44 11 0} {11 62 0} 
Flow 199: {27 16 0} {16 32 0} 
Flow 203: {28 29 0} 
Flow 218: {30 29 0} 
Flow 225: {1 7 0} {7 58 0} 
Flow 228: {32 12 0} {12 63 0} 
Flow 231: {32 16 0} {16 67 0} 
Flow 232: {32 18 0} {18 69 0} 
Flow 233: {32 19 0} {19 70 0} 
Flow 234: {32 20 0} {20 71 0} 
Flow 247: {33 6 0} 
Flow 250: {34 6 0} 
Flow 262: {35 32 0} 
Flow 266: {36 6 0} 
Flow 271: {37 6 0} {6 46 0} 
Flow 272: {38 6 0} 
Flow 274: {40 6 0} 
Flow 277: {41 6 0} 
Flow 281: {42 43 0} {43 3 0} {3 54 0} 
Flow 283: {1 5 0} {5 56 0} 
Flow 296: {32 21 0} {21 72 0} 
Flow 297: {29 23 0} {23 74 0} 
Flow 299: {16 27 0} {27 78 0} 
Flow 300: {29 28 0} {28 79 0} 
Flow 314: {44 1 0} {1 52 0} 
Flow 333: {14 25 0} {25 76 0} 
Flow 344: {44 47 0} {47 3 0} {3 43 0} {43 94 0} 
Flow 358: {1 8 0} {8 59 0} 
Flow 362: {32 14 0} {14 65 0} 
Flow 369: {29 22 0} {22 73 0} 
Flow 372: {45 26 0} {26 77 0} 
Flow 388: {51 102 0} 
Flow 397: {6 10 0} {10 61 0} 
Flow 401: {15 66 0} 
Flow 409: {32 15 0} {15 24 0} {24 75 0} 
Flow 414: {46 29 0} {29 80 0} 
Flow 415: {29 31 0} {31 82 0} 
Flow 417: {6 34 0} {34 85 0} 
Flow 419: {6 36 0} {36 87 0} 
Flow 420: {6 37 0} {37 88 0} 
Flow 421: {46 6 0} {6 38 0} {38 89 0} 
Flow 422: {6 39 0} {39 90 0} 
Flow 423: {6 40 0} {40 91 0} 
Flow 424: {6 41 0} {41 92 0} 
Flow 432: {48 51 0} {51 50 0} {50 101 0} 
Flow 437: {47 4 0} {4 55 0} 
Flow 494: {49 46 0} {46 32 0} {32 35 0} {35 86 0} 
Flow 505: {50 51 0} {51 48 0} {48 45 0} {45 46 0} {46 97 0} 
Time taken running everything: 2 seconds
