networks/zoo_102_510/zoo_102_510-lower.sol
<?xml version = "1.0" encoding="UTF-8" standalone="yes"?>
<CPLEXSolution version="1.2">
 <header
   problemName="networks/zoo_102_510/zoo_102_510-lower.lp"
   solutionName="incumbent"
   solutionIndex="-1"
   objectiveValue="46"
   solutionTypeValue="3"
   solutionTypeString="primal"
   solutionStatusValue="101"
   solutionStatusString="integer optimal solution"
   solutionMethodString="mip"
   primalFeasible="1"
   dualFeasible="1"
   MIPNodes="0"
   MIPIterations="0"
   writeLevel="3"/>
 <quality
   epInt="1.0000000000000001e-05"
   epRHS="9.9999999999999995e-07"
   maxIntInfeas="0"
   maxPrimalInfeas="0"
   maxX="1"
   maxSlack="1"/>
 <variables>
  <variable name="Y(1,2)" index="1" value="1"/>
  <variable name="Y(2,3)" index="99" value="1"/>
  <variable name="Y(3,6)" index="199" value="1"/>
  <variable name="Y(4,8)" index="298" value="1"/>
  <variable name="Y(5,11)" index="398" value="1"/>
  <variable name="Y(6,14)" index="498" value="1"/>
  <variable name="Y(7,16)" index="597" value="1"/>
  <variable name="Y(8,18)" index="696" value="1"/>
  <variable name="Y(9,29)" index="804" value="1"/>
  <variable name="Y(10,32)" index="904" value="1"/>
  <variable name="Y(11,35)" index="1004" value="1"/>
  <variable name="Y(12,42)" index="1108" value="1"/>
  <variable name="Y(13,43)" index="1206" value="1"/>
  <variable name="Y(14,44)" index="1304" value="1"/>
  <variable name="Y(15,45)" index="1402" value="1"/>
  <variable name="Y(16,46)" index="1500" value="1"/>
  <variable name="Y(17,47)" index="1598" value="1"/>
  <variable name="Y(18,48)" index="1696" value="1"/>
  <variable name="Y(19,49)" index="1794" value="1"/>
  <variable name="Y(20,51)" index="1893" value="1"/>
  <variable name="Y(62,1)" index="5917" value="1"/>
  <variable name="Y(70,20)" index="6712" value="1"/>
  <variable name="Y(223,4)" index="21537" value="1"/>
  <variable name="Y(225,7)" index="21734" value="1"/>
  <variable name="Y(228,12)" index="22030" value="1"/>
  <variable name="Y(230,15)" index="22227" value="1"/>
  <variable name="Y(233,19)" index="22522" value="1"/>
  <variable name="Y(235,26)" index="22723" value="1"/>
  <variable name="Y(283,5)" index="27358" value="1"/>
  <variable name="Y(287,10)" index="27751" value="1"/>
  <variable name="Y(296,21)" index="28635" value="1"/>
  <variable name="Y(297,23)" index="28734" value="1"/>
  <variable name="Y(299,27)" index="28932" value="1"/>
  <variable name="Y(300,28)" index="29030" value="1"/>
  <variable name="Y(302,31)" index="29227" value="1"/>
  <variable name="Y(305,37)" index="29524" value="1"/>
  <variable name="Y(333,25)" index="32228" value="1"/>
  <variable name="Y(342,39)" index="33115" value="1"/>
  <variable name="Y(369,22)" index="35717" value="1"/>
  <variable name="Y(409,24)" index="39599" value="1"/>
  <variable name="Y(417,34)" index="40385" value="1"/>
  <variable name="Y(419,36)" index="40581" value="1"/>
  <variable name="Y(421,38)" index="40777" value="1"/>
  <variable name="Y(423,40)" index="40973" value="1"/>
  <variable name="Y(424,41)" index="41071" value="1"/>
  <variable name="Y(432,50)" index="41856" value="1"/>
  <variable name="X(1,2,1)" index="49470" value="1"/>
  <variable name="X(1,5,283)" index="50262" value="1"/>
  <variable name="X(1,7,225)" index="50714" value="1"/>
  <variable name="X(1,8,4)" index="51003" value="1"/>
  <variable name="X(1,44,2)" index="51511" value="1"/>
  <variable name="X(1,52,62)" index="52081" value="1"/>
  <variable name="X(2,1,21)" index="52550" value="1"/>
  <variable name="X(2,53,1)" index="53040" value="1"/>
  <variable name="X(3,43,13)" index="53562" value="1"/>
  <variable name="X(3,47,34)" index="54093" value="1"/>
  <variable name="X(3,54,2)" index="54571" value="1"/>
  <variable name="X(4,47,47)" index="55126" value="1"/>
  <variable name="X(4,55,223)" index="55812" value="1"/>
  <variable name="X(5,1,50)" index="56149" value="1"/>
  <variable name="X(5,56,283)" index="56892" value="1"/>
  <variable name="X(6,10,287)" index="57406" value="1"/>
  <variable name="X(6,34,417)" index="58046" value="1"/>
  <variable name="X(6,36,419)" index="58558" value="1"/>
  <variable name="X(6,37,305)" index="58954" value="1"/>
  <variable name="X(6,38,421)" index="59580" value="1"/>
  <variable name="X(6,39,342)" index="60011" value="1"/>
  <variable name="X(6,40,423)" index="60602" value="1"/>
  <variable name="X(6,41,424)" index="61113" value="1"/>
  <variable name="X(6,46,62)" index="61261" value="1"/>
  <variable name="X(6,57,3)" index="61712" value="1"/>
  <variable name="X(7,1,83)" index="62302" value="1"/>
  <variable name="X(7,58,225)" index="62954" value="1"/>
  <variable name="X(8,1,95)" index="63334" value="1"/>
  <variable name="X(8,59,4)" index="63753" value="1"/>
  <variable name="X(9,6,108)" index="64367" value="1"/>
  <variable name="X(10,6,111)" index="64880" value="1"/>
  <variable name="X(10,61,287)" index="65566" value="1"/>
  <variable name="X(11,62,5)" index="65794" value="1"/>
  <variable name="X(12,32,112)" index="66411" value="1"/>
  <variable name="X(12,63,228)" index="67037" value="1"/>
  <variable name="X(13,32,125)" index="67444" value="1"/>
  <variable name="X(14,25,333)" index="68162" value="1"/>
  <variable name="X(14,32,127)" index="68466" value="1"/>
  <variable name="X(14,65,6)" index="68855" value="1"/>
  <variable name="X(15,24,409)" index="69768" value="1"/>
  <variable name="X(15,32,140)" index="70009" value="1"/>
  <variable name="X(15,66,230)" index="70609" value="1"/>
  <variable name="X(16,27,299)" index="71188" value="1"/>
  <variable name="X(16,32,148)" index="71547" value="1"/>
  <variable name="X(16,67,7)" index="71916" value="1"/>
  <variable name="X(17,32,161)" index="72580" value="1"/>
  <variable name="X(18,32,166)" index="73095" value="1"/>
  <variable name="X(18,69,8)" index="73447" value="1"/>
  <variable name="X(19,32,173)" index="74122" value="1"/>
  <variable name="X(19,70,233)" index="74692" value="1"/>
  <variable name="X(20,32,177)" index="75146" value="1"/>
  <variable name="X(20,71,70)" index="75549" value="1"/>
  <variable name="X(21,32,182)" index="76171" value="1"/>
  <variable name="X(21,72,296)" index="76795" value="1"/>
  <variable name="X(22,29,185)" index="77194" value="1"/>
  <variable name="X(22,73,369)" index="77888" value="1"/>
  <variable name="X(23,74,297)" index="78326" value="1"/>
  <variable name="X(24,75,409)" index="78948" value="1"/>
  <variable name="X(25,14,188)" index="79237" value="1"/>
  <variable name="X(25,76,333)" index="79892" value="1"/>
  <variable name="X(26,45,191)" index="80260" value="1"/>
  <variable name="X(26,77,235)" index="80814" value="1"/>
  <variable name="X(27,16,199)" index="81288" value="1"/>
  <variable name="X(27,78,299)" index="81898" value="1"/>
  <variable name="X(28,29,202)" index="82311" value="1"/>
  <variable name="X(28,79,300)" index="82919" value="1"/>
  <variable name="X(29,22,369)" index="83498" value="1"/>
  <variable name="X(29,23,297)" index="83936" value="1"/>
  <variable name="X(29,28,300)" index="84449" value="1"/>
  <variable name="X(29,31,302)" index="84961" value="1"/>
  <variable name="X(29,46,185)" index="85354" value="1"/>
  <variable name="X(29,80,9)" index="85688" value="1"/>
  <variable name="X(30,29,217)" index="86406" value="1"/>
  <variable name="X(31,82,302)" index="87001" value="1"/>
  <variable name="X(32,12,228)" index="87437" value="1"/>
  <variable name="X(32,14,6)" index="87725" value="1"/>
  <variable name="X(32,15,230)" index="88459" value="1"/>
  <variable name="X(32,16,7)" index="88746" value="1"/>
  <variable name="X(32,18,8)" index="89257" value="1"/>
  <variable name="X(32,19,233)" index="89992" value="1"/>
  <variable name="X(32,20,70)" index="90339" value="1"/>
  <variable name="X(32,21,296)" index="91075" value="1"/>
  <variable name="X(32,35,11)" index="91300" value="1"/>
  <variable name="X(32,46,112)" index="91911" value="1"/>
  <variable name="X(32,83,10)" index="92319" value="1"/>
  <variable name="X(33,6,247)" index="93066" value="1"/>
  <variable name="X(34,6,250)" index="93579" value="1"/>
  <variable name="X(34,85,417)" index="94256" value="1"/>
  <variable name="X(35,32,253)" index="94602" value="1"/>
  <variable name="X(35,86,11)" index="94870" value="1"/>
  <variable name="X(36,6,266)" index="95635" value="1"/>
  <variable name="X(36,87,419)" index="96298" value="1"/>
  <variable name="X(37,6,269)" index="96658" value="1"/>
  <variable name="X(37,88,305)" index="97204" value="1"/>
  <variable name="X(38,6,272)" index="97681" value="1"/>
  <variable name="X(38,89,421)" index="98340" value="1"/>
  <variable name="X(39,90,342)" index="98771" value="1"/>
  <variable name="X(40,6,274)" index="99213" value="1"/>
  <variable name="X(40,91,423)" index="99872" value="1"/>
  <variable name="X(41,6,277)" index="100236" value="1"/>
  <variable name="X(41,92,424)" index="100893" value="1"/>
  <variable name="X(42,43,281)" index="101260" value="1"/>
  <variable name="X(42,48,45)" index="101534" value="1"/>
  <variable name="X(42,93,12)" index="102011" value="1"/>
  <variable name="X(43,3,281)" index="102790" value="1"/>
  <variable name="X(43,42,39)" index="103058" value="1"/>
  <variable name="X(43,94,13)" index="103542" value="1"/>
  <variable name="X(44,1,34)" index="104073" value="1"/>
  <variable name="X(44,11,5)" index="104554" value="1"/>
  <variable name="X(44,45,12)" index="105071" value="1"/>
  <variable name="X(44,46,3)" index="105572" value="1"/>
  <variable name="X(44,47,2)" index="106081" value="1"/>
  <variable name="X(44,95,14)" index="106603" value="1"/>
  <variable name="X(45,26,235)" index="107334" value="1"/>
  <variable name="X(45,44,191)" index="107800" value="1"/>
  <variable name="X(45,46,192)" index="108311" value="1"/>
  <variable name="X(45,48,12)" index="108641" value="1"/>
  <variable name="X(45,96,15)" index="109154" value="1"/>
  <variable name="X(46,6,3)" index="109652" value="1"/>
  <variable name="X(46,29,9)" index="110168" value="1"/>
  <variable name="X(46,32,6)" index="110675" value="1"/>
  <variable name="X(46,44,62)" index="111241" value="1"/>
  <variable name="X(46,45,74)" index="111763" value="1"/>
  <variable name="X(46,49,19)" index="112218" value="1"/>
  <variable name="X(46,97,16)" index="112725" value="1"/>
  <variable name="X(47,3,2)" index="113221" value="1"/>
  <variable name="X(47,4,223)" index="113952" value="1"/>
  <variable name="X(47,44,34)" index="114273" value="1"/>
  <variable name="X(47,98,17)" index="114766" value="1"/>
  <variable name="X(48,42,12)" index="115271" value="1"/>
  <variable name="X(48,45,279)" index="116048" value="1"/>
  <variable name="X(48,51,20)" index="116299" value="1"/>
  <variable name="X(48,99,18)" index="116807" value="1"/>
  <variable name="X(49,46,483)" index="117782" value="1"/>
  <variable name="X(49,100,19)" index="117828" value="1"/>
  <variable name="X(50,51,503)" index="118822" value="1"/>
  <variable name="X(50,101,432)" index="119261" value="1"/>
  <variable name="X(51,48,503)" index="119842" value="1"/>
  <variable name="X(51,50,432)" index="120281" value="1"/>
  <variable name="X(51,102,20)" index="120379" value="1"/>
 </variables>
</CPLEXSolution>
